CP/rotation/data/38x38.dzn
h = 38;
w = 38;
n_pieces = 19;
n_shapes = 37;
shape = [{1}, {2}, {3}, {4}, {5}, {6}, {7}, {8}, {9}, {10}, {11}, {12}, {13}, {14}, {15}, {16}, {17}, {18}, {19}, {20}, {21}, {22}, {23}, {24}, {25}, {26}, {27}, {28}, {29}, {30}, {31}, {32}, {33}, {34}, {35}, {36}, {37}];
shape_index = [{1}, {2, 3}, {4, 5}, {6, 7}, {8, 9}, {10, 11}, {12, 13}, {14, 15}, {16, 17}, {18, 19}, {20, 21}, {22, 23}, {24, 25}, {26, 27}, {28, 29}, {30, 31}, {32, 33}, {34, 35}, {36, 37}];
rect_rep = [1, 1, 1, 1, 1, 1, 1, 1, 1, 1, 1, 1, 1, 1, 1, 1, 1, 1, 1];
rect_copies = 19;
coordinate_shapes = [0, 1, 2, 3, 4, 5, 6, 7, 8, 9, 10, 11, 12, 13, 14, 15, 16, 17, 18];
rect_size = [|3, 3
|3, 4
|4, 3
|3, 5
|5, 3
|3, 6
|6, 3
|3, 7
|7, 3
|3, 8
|8, 3
|3, 9
|9, 3
|3, 10
|10, 3
|3, 11
|11, 3
|3, 13
|13, 3
|4, 3
|3, 4
|4, 5
|5, 4
|4, 6
|6, 4
|4, 8
|8, 4
|4, 11
|11, 4
|4, 12
|12, 4
|4, 15
|15, 4
|4, 16
|16, 4
|24, 38
|38, 24
|];
rect_offset = [|0, 0
|0, 0
|0, 0
|0, 0
|0, 0
|0, 0
|0, 0
|0, 0
|0, 0
|0, 0
|0, 0
|0, 0
|0, 0
|0, 0
|0, 0
|0, 0
|0, 0
|0, 0
|0, 0
|0, 0
|0, 0
|0, 0
|0, 0
|0, 0
|0, 0
|0, 0
|0, 0
|0, 0
|0, 0
|0, 0
|0, 0
|0, 0
|0, 0
|0, 0
|0, 0
|0, 0
|0, 0
|];
rectangles = [|3, 3
|3, 4
|3, 5
|3, 6
|3, 7
|3, 8
|3, 9
|3, 10
|3, 11
|3, 13
|4, 3
|4, 5
|4, 6
|4, 8
|4, 11
|4, 12
|4, 15
|4, 16
|24, 38
|];
